c *********************************
c * Circuit generated by BenCGen
c *
c * CarrySelectAdder_6_6_6_InOut_G4T
c *
c * Ports with 1 gate(s): 8
c * Ports with 2 gate(s): 54
c * Total gates: 62
c *********************************
p cnf 74 194
1 21 0
-1 -21 0
1 -20 0
21 -20 0
-1 -21 20 0
20 38 0
-20 -38 0
1 7 -24 0
-1 7 24 0
1 -7 24 0
-1 -7 -24 0
24 20 -13 0
-24 20 13 0
24 -20 13 0
-24 -20 -13 0
20 -25 0
24 -25 0
-20 -24 25 0
7 -26 0
1 -26 0
-7 -1 26 0
-25 23 0
-26 23 0
25 26 -23 0
2 8 -28 0
-2 8 28 0
2 -8 28 0
-2 -8 -28 0
28 23 -14 0
-28 23 14 0
28 -23 14 0
-28 -23 -14 0
23 -29 0
28 -29 0
-23 -28 29 0
8 -30 0
2 -30 0
-8 -2 30 0
-29 27 0
-30 27 0
29 30 -27 0
3 9 -32 0
-3 9 32 0
3 -9 32 0
-3 -9 -32 0
32 27 -15 0
-32 27 15 0
32 -27 15 0
-32 -27 -15 0
27 -33 0
32 -33 0
-27 -32 33 0
9 -34 0
3 -34 0
-9 -3 34 0
-33 31 0
-34 31 0
33 34 -31 0
4 10 -35 0
-4 10 35 0
4 -10 35 0
-4 -10 -35 0
35 31 -16 0
-35 31 16 0
35 -31 16 0
-35 -31 -16 0
31 -36 0
35 -36 0
-31 -35 36 0
10 -37 0
4 -37 0
-10 -4 37 0
-36 22 0
-37 22 0
36 37 -22 0
5 11 -45 0
-5 11 45 0
5 -11 45 0
-5 -11 -45 0
45 20 -39 0
-45 20 39 0
45 -20 39 0
-45 -20 -39 0
20 -46 0
45 -46 0
-20 -45 46 0
11 -47 0
5 -47 0
-11 -5 47 0
-46 44 0
-47 44 0
46 47 -44 0
6 12 -48 0
-6 12 48 0
6 -12 48 0
-6 -12 -48 0
48 44 -40 0
-48 44 40 0
48 -44 40 0
-48 -44 -40 0
44 -49 0
48 -49 0
-44 -48 49 0
12 -50 0
6 -50 0
-12 -6 50 0
-49 43 0
-50 43 0
49 50 -43 0
45 -51 0
48 -51 0
-45 -48 51 0
50 -52 0
-50 52 0
5 11 -55 0
-5 11 55 0
5 -11 55 0
-5 -11 -55 0
55 38 -41 0
-55 38 41 0
55 -38 41 0
-55 -38 -41 0
38 -56 0
55 -56 0
-38 -55 56 0
11 -57 0
5 -57 0
-11 -5 57 0
-56 54 0
-57 54 0
56 57 -54 0
6 12 -58 0
-6 12 58 0
6 -12 58 0
-6 -12 -58 0
58 54 -42 0
-58 54 42 0
58 -54 42 0
-58 -54 -42 0
54 -59 0
58 -59 0
-54 -58 59 0
12 -60 0
6 -60 0
-12 -6 60 0
-59 53 0
-60 53 0
59 60 -53 0
55 -61 0
58 -61 0
-55 -58 61 0
60 -62 0
-60 62 0
22 64 0
-22 -64 0
64 -65 0
39 -65 0
-64 -39 65 0
22 -66 0
41 -66 0
-22 -41 66 0
-65 17 0
-66 17 0
65 66 -17 0
22 67 0
-22 -67 0
67 -68 0
40 -68 0
-67 -40 68 0
22 -69 0
42 -69 0
-22 -42 69 0
-68 18 0
-69 18 0
68 69 -18 0
22 70 0
-22 -70 0
70 -71 0
43 -71 0
-70 -43 71 0
22 -72 0
53 -72 0
-22 -53 72 0
-71 63 0
-72 63 0
71 72 -63 0
22 -73 0
61 -73 0
-22 -61 73 0
-73 74 0
-63 74 0
73 63 -74 0
74 -19 0
-74 19 0
